\ENCODING=ISO-8859-1
\Problem name: b2SARP

Maximize
 obj1: - 4.82428 x(15,82,0) + 1.808 x(15,83,0) - 12.53776 x(15,84,0)
       + 1.07974 x(15,85,0) + 2.8995 x(15,86,0) - 4.05996 x(15,87,0)
       - 3.99086 x(15,88,0) - 0.371580000000001 x(15,89,0) - 8.9654 x(15,90,0)
       - 7.64568 x(15,91,0) - 5.06048 x(15,92,0) - 12.91404 x(15,93,0)
       - 1.26572 x(22,82,0) + 3.1742 x(22,83,0) - 9.12548 x(22,84,0)
       - 4.15002 x(22,88,0) - 2.23182 x(22,89,0) - 8.93412 x(22,90,0)
       - 6.31444 x(22,91,0) - 3.4284 x(22,92,0) - 11.58188 x(22,93,0)
       + 4.77066 x(22,94,0) + 4.84794 x(22,95,0) - 0.19688 x(22,96,0)
       + 2.01316 x(40,82,0) + 9.44308 x(40,83,0) - 7.13276 x(40,84,0)
       - 1.25706 x(40,85,0) - 0.803500000000001 x(40,86,0) - 3.47576 x(40,87,0)
       + 0.87904 x(40,91,0) + 3.64824 x(40,92,0) - 3.42884 x(40,93,0)
       - 4.41922 x(40,94,0) - 2.81566 x(40,95,0) - 8.8412 x(40,96,0)
       + 2.11198 x(49,85,0) + 8.53174 x(49,86,0) - 2.8382 x(49,87,0)
       - 4.16658 x(49,88,0) - 2.43606 x(49,89,0) - 6.808 x(49,90,0)
       - 1.63164 x(49,91,0) + 1.2452 x(49,92,0) - 6.35076 x(49,93,0)
       + 1.33262 x(49,94,0) + 1.34826 x(49,95,0) - 1.77192 x(49,96,0)
       + 0 x(64,81,0) + 1.40228 x(64,82,0) + 5.11724 x(64,83,0)
       - 5.94964 x(64,84,0) + 3.2537 x(64,85,0) + 6.46358 x(64,86,0)
       - 2.3414 x(64,87,0) - 0.93554 x(64,88,0) + 1.31754 x(64,89,0)
       - 5.5936 x(64,90,0) - 1.73744 x(64,91,0) - 0.294879999999999 x(64,92,0)
       - 7.04812 x(64,93,0) + 3.40446 x(64,94,0) + 4.89394 x(64,95,0)
       - 0.98716 x(64,96,0) - 4.75252 x(80,82,0) + 0.856720000000001 x(80,83,0)
       - 12.76684 x(80,84,0) + 0.718179999999999 x(80,85,0)
       + 3.82778 x(80,86,0) - 4.71776 x(80,87,0) - 4.41682 x(80,88,0)
       - 1.84358 x(80,89,0) - 10.26628 x(80,90,0) - 8.83892 x(80,91,0)
       - 6.01452 x(80,92,0) - 14.00056 x(80,93,0) + 2.44858 x(80,94,0)
       + 5.42754 x(80,95,0) - 2.57048 x(80,96,0) + 0 x(82,85,0) + 0 x(82,86,0)
       + 0 x(82,87,0) + 0 x(82,88,0) + 0 x(82,89,0) + 0 x(82,90,0)
       + 0 x(82,91,0) + 0 x(82,92,0) + 0 x(82,93,0) + 0 x(82,94,0)
       + 0 x(82,95,0) + 0 x(82,96,0) + 0 x(83,85,0) + 0 x(83,86,0)
       + 0 x(83,87,0) + 0 x(83,88,0) + 0 x(83,89,0) + 0 x(83,90,0)
       + 0 x(83,91,0) + 0 x(83,92,0) + 0 x(83,93,0) + 0 x(83,94,0)
       + 0 x(83,95,0) + 0 x(83,96,0) + 0 x(84,85,0) + 0 x(84,86,0)
       + 0 x(84,87,0) + 0 x(84,88,0) + 0 x(84,89,0) + 0 x(84,90,0)
       + 0 x(84,91,0) + 0 x(84,92,0) + 0 x(84,93,0) + 0 x(84,94,0)
       + 0 x(84,95,0) + 0 x(84,96,0) + 0 x(85,82,0) + 0 x(85,83,0)
       + 0 x(85,84,0) + 0 x(85,88,0) + 0 x(85,89,0) + 0 x(85,90,0)
       + 0 x(85,91,0) + 0 x(85,92,0) + 0 x(85,93,0) + 0 x(85,94,0)
       + 0 x(85,95,0) + 0 x(85,96,0) + 0 x(86,82,0) + 0 x(86,83,0)
       + 0 x(86,84,0) + 0 x(86,88,0) + 0 x(86,89,0) + 0 x(86,90,0)
       + 0 x(86,91,0) + 0 x(86,92,0) + 0 x(86,93,0) + 0 x(86,94,0)
       + 0 x(86,95,0) + 0 x(86,96,0) + 0 x(87,82,0) + 0 x(87,83,0)
       + 0 x(87,84,0) + 0 x(87,88,0) + 0 x(87,89,0) + 0 x(87,90,0)
       + 0 x(87,91,0) + 0 x(87,92,0) + 0 x(87,93,0) + 0 x(87,94,0)
       + 0 x(87,95,0) + 0 x(87,96,0) + 0 x(88,82,0) + 0 x(88,83,0)
       + 0 x(88,84,0) + 0 x(88,85,0) + 0 x(88,86,0) + 0 x(88,87,0)
       + 0 x(88,91,0) + 0 x(88,92,0) + 0 x(88,93,0) + 0 x(88,94,0)
       + 0 x(88,95,0) + 0 x(88,96,0) + 0 x(89,82,0) + 0 x(89,83,0)
       + 0 x(89,84,0) + 0 x(89,85,0) + 0 x(89,86,0) + 0 x(89,87,0)
       + 0 x(89,91,0) + 0 x(89,92,0) + 0 x(89,93,0) + 0 x(89,94,0)
       + 0 x(89,95,0) + 0 x(89,96,0) + 0 x(90,82,0) + 0 x(90,83,0)
       + 0 x(90,84,0) + 0 x(90,85,0) + 0 x(90,86,0) + 0 x(90,87,0)
       + 0 x(90,91,0) + 0 x(90,92,0) + 0 x(90,93,0) + 0 x(90,94,0)
       + 0 x(90,95,0) + 0 x(90,96,0) + 0 x(91,82,0) + 0 x(91,83,0)
       + 0 x(91,84,0) + 0 x(91,85,0) + 0 x(91,86,0) + 0 x(91,87,0)
       + 0 x(91,88,0) + 0 x(91,89,0) + 0 x(91,90,0) + 0 x(91,94,0)
       + 0 x(91,95,0) + 0 x(91,96,0) + 0 x(92,82,0) + 0 x(92,83,0)
       + 0 x(92,84,0) + 0 x(92,85,0) + 0 x(92,86,0) + 0 x(92,87,0)
       + 0 x(92,88,0) + 0 x(92,89,0) + 0 x(92,90,0) + 0 x(92,94,0)
       + 0 x(92,95,0) + 0 x(92,96,0) + 0 x(93,82,0) + 0 x(93,83,0)
       + 0 x(93,84,0) + 0 x(93,85,0) + 0 x(93,86,0) + 0 x(93,87,0)
       + 0 x(93,88,0) + 0 x(93,89,0) + 0 x(93,90,0) + 0 x(93,94,0)
       + 0 x(93,95,0) + 0 x(93,96,0) + 0 x(94,82,0) + 0 x(94,83,0)
       + 0 x(94,84,0) + 0 x(94,85,0) + 0 x(94,86,0) + 0 x(94,87,0)
       + 0 x(94,88,0) + 0 x(94,89,0) + 0 x(94,90,0) + 0 x(94,91,0)
       + 0 x(94,92,0) + 0 x(94,93,0) + 0 x(95,82,0) + 0 x(95,83,0)
       + 0 x(95,84,0) + 0 x(95,85,0) + 0 x(95,86,0) + 0 x(95,87,0)
       + 0 x(95,88,0) + 0 x(95,89,0) + 0 x(95,90,0) + 0 x(95,91,0)
       + 0 x(95,92,0) + 0 x(95,93,0) + 0 x(96,82,0) + 0 x(96,83,0)
       + 0 x(96,84,0) + 0 x(96,85,0) + 0 x(96,86,0) + 0 x(96,87,0)
       + 0 x(96,88,0) + 0 x(96,89,0) + 0 x(96,90,0) + 0 x(96,91,0)
       + 0 x(96,92,0) + 0 x(96,93,0)
Subject To
 Constraint1_5:       x(15,82,0) + x(15,83,0) + x(15,84,0) + x(22,82,0)
                      + x(22,83,0) + x(22,84,0) + x(40,49,0) + x(40,82,0)
                      + x(40,83,0) + x(40,84,0) + x(49,22,0) + x(64,82,0)
                      + x(64,83,0) + x(64,84,0) + x(80,82,0) + x(80,83,0)
                      + x(80,84,0) + x(82,15,0) + x(82,22,0) + x(82,40,0)
                      + x(82,64,0) + x(82,81,0) + x(83,15,0) + x(83,22,0)
                      + x(83,40,0) + x(83,64,0) + x(83,81,0) + x(84,15,0)
                      + x(84,22,0) + x(84,40,0) + x(84,64,0) + x(84,81,0) <= 0
 Constraint1_6:       x(15,85,0) + x(15,86,0) + x(15,87,0) + x(22,64,0)
                      + x(40,85,0) + x(40,86,0) + x(40,87,0) + x(49,22,0)
                      + x(49,85,0) + x(49,86,0) + x(49,87,0) + x(64,85,0)
                      + x(64,86,0) + x(64,87,0) + x(80,85,0) + x(80,86,0)
                      + x(80,87,0) + x(85,15,0) + x(85,40,0) + x(85,49,0)
                      + x(85,64,0) + x(85,81,0) + x(86,15,0) + x(86,40,0)
                      + x(86,49,0) + x(86,64,0) + x(86,81,0) + x(87,15,0)
                      + x(87,40,0) + x(87,49,0) + x(87,64,0) + x(87,81,0) <= 0
 Constraint1_7:       x(15,40,0) + x(15,88,0) + x(15,89,0) + x(15,90,0)
                      + x(22,88,0) + x(22,89,0) + x(22,90,0) + x(40,49,0)
                      + x(49,88,0) + x(49,89,0) + x(49,90,0) + x(64,88,0)
                      + x(64,89,0) + x(64,90,0) + x(80,88,0) + x(80,89,0)
                      + x(80,90,0) + x(88,15,0) + x(88,22,0) + x(88,49,0)
                      + x(88,64,0) + x(88,81,0) + x(89,15,0) + x(89,22,0)
                      + x(89,49,0) + x(89,64,0) + x(89,81,0) + x(90,15,0)
                      + x(90,22,0) + x(90,49,0) + x(90,64,0) + x(90,81,0) <= 0
 Constraint1_8:       x(15,91,0) + x(15,92,0) + x(15,93,0) + x(22,91,0)
                      + x(22,92,0) + x(22,93,0) + x(40,91,0) + x(40,92,0)
                      + x(40,93,0) + x(49,91,0) + x(49,92,0) + x(49,93,0)
                      + x(64,91,0) + x(64,92,0) + x(64,93,0) + x(80,91,0)
                      + x(80,92,0) + x(80,93,0) + x(91,15,0) + x(91,22,0)
                      + x(91,40,0) + x(91,49,0) + x(91,64,0) + x(91,81,0)
                      + x(92,15,0) + x(92,22,0) + x(92,40,0) + x(92,49,0)
                      + x(92,64,0) + x(92,81,0) + x(93,15,0) + x(93,22,0)
                      + x(93,40,0) + x(93,49,0) + x(93,64,0) + x(93,81,0) <= 1
 Constraint1_9:       x(15,40,0) + x(22,94,0) + x(22,95,0) + x(22,96,0)
                      + x(40,94,0) + x(40,95,0) + x(40,96,0) + x(49,94,0)
                      + x(49,95,0) + x(49,96,0) + x(64,94,0) + x(64,95,0)
                      + x(64,96,0) + x(80,15,0) + x(80,94,0) + x(80,95,0)
                      + x(80,96,0) + x(94,22,0) + x(94,40,0) + x(94,49,0)
                      + x(94,64,0) + x(94,81,0) + x(95,22,0) + x(95,40,0)
                      + x(95,49,0) + x(95,64,0) + x(95,81,0) + x(96,22,0)
                      + x(96,40,0) + x(96,49,0) + x(96,64,0) + x(96,81,0) <= 0
 Constraint2_0_80:    x(80,82,0) + x(80,83,0) + x(80,84,0) + x(80,85,0)
                      + x(80,86,0) + x(80,87,0) + x(80,88,0) + x(80,89,0)
                      + x(80,90,0) + x(80,91,0) + x(80,92,0) + x(80,93,0)
                      + x(80,94,0) + x(80,95,0) + x(80,96,0) <= 1
 Constraint2_0_15:    x(15,82,0) + x(15,83,0) + x(15,84,0) + x(15,85,0)
                      + x(15,86,0) + x(15,87,0) + x(15,88,0) + x(15,89,0)
                      + x(15,90,0) + x(15,91,0) + x(15,92,0) + x(15,93,0) <= 1
 Constraint2_0_40:    x(40,82,0) + x(40,83,0) + x(40,84,0) + x(40,85,0)
                      + x(40,86,0) + x(40,87,0) + x(40,91,0) + x(40,92,0)
                      + x(40,93,0) + x(40,94,0) + x(40,95,0) + x(40,96,0) <= 1
 Constraint2_0_49:    x(49,85,0) + x(49,86,0) + x(49,87,0) + x(49,88,0)
                      + x(49,89,0) + x(49,90,0) + x(49,91,0) + x(49,92,0)
                      + x(49,93,0) + x(49,94,0) + x(49,95,0) + x(49,96,0) <= 1
 Constraint2_0_22:    x(22,82,0) + x(22,83,0) + x(22,84,0) + x(22,88,0)
                      + x(22,89,0) + x(22,90,0) + x(22,91,0) + x(22,92,0)
                      + x(22,93,0) + x(22,94,0) + x(22,95,0) + x(22,96,0) <= 1
 Constraint2_0_64:    x(64,82,0) + x(64,83,0) + x(64,84,0) + x(64,85,0)
                      + x(64,86,0) + x(64,87,0) + x(64,88,0) + x(64,89,0)
                      + x(64,90,0) + x(64,91,0) + x(64,92,0) + x(64,93,0)
                      + x(64,94,0) + x(64,95,0) + x(64,96,0) <= 1
 Constraint2.5_0_80:  <= 0
 Constraint2.5_0_15:  <= 0
 Constraint2.5_0_40:  <= 0
 Constraint2.5_0_49:  <= 0
 Constraint2.5_0_22:  <= 0
 Constraint2.5_0_64:  <= 0
 Constraint3_5_0:     x(15,83,0) - x(15,84,0) + x(22,83,0) - x(22,84,0)
                      + x(40,83,0) - x(40,84,0) + x(64,83,0) - x(64,84,0)
                      + x(80,83,0) - x(80,84,0)  = 0
 Constraint3_6_0:     x(15,86,0) - x(15,87,0) + x(40,86,0) - x(40,87,0)
                      + x(49,86,0) - x(49,87,0) + x(64,86,0) - x(64,87,0)
                      + x(80,86,0) - x(80,87,0)  = 0
 Constraint3_7_0:     x(15,89,0) - x(15,90,0) + x(22,89,0) - x(22,90,0)
                      + x(49,89,0) - x(49,90,0) + x(64,89,0) - x(64,90,0)
                      + x(80,89,0) - x(80,90,0)  = 0
 Constraint3_8_0:     x(15,92,0) - x(15,93,0) + x(22,92,0) - x(22,93,0)
                      + x(40,92,0) - x(40,93,0) + x(49,92,0) - x(49,93,0)
                      + x(64,92,0) - x(64,93,0) + x(80,92,0) - x(80,93,0)  = 0
 Constraint3_9_0:     x(22,95,0) - x(22,96,0) + x(40,95,0) - x(40,96,0)
                      + x(49,95,0) - x(49,96,0) + x(64,95,0) - x(64,96,0)
                      + x(80,95,0) - x(80,96,0)  = 0
 Constraint4_0_83_15: x(80,83,0) - x(80,84,0) >= 0
 Constraint4_0_83_40: x(15,83,0) - x(15,84,0) + x(80,83,0) - x(80,84,0) >= 0
 Constraint4_0_83_49: x(15,83,0) - x(15,84,0) + x(40,83,0) - x(40,84,0)
                      + x(80,83,0) - x(80,84,0) >= 0
 Constraint4_0_83_22: x(15,83,0) - x(15,84,0) + x(40,83,0) - x(40,84,0)
                      + x(80,83,0) - x(80,84,0) >= 0
 Constraint4_0_83_64: x(15,83,0) - x(15,84,0) + x(22,83,0) - x(22,84,0)
                      + x(40,83,0) - x(40,84,0) + x(80,83,0) - x(80,84,0) >= 0
 Constraint4_0_83_81: x(15,83,0) - x(15,84,0) + x(22,83,0) - x(22,84,0)
                      + x(40,83,0) - x(40,84,0) + x(64,83,0) - x(64,84,0)
                      + x(80,83,0) - x(80,84,0) >= 0
 Constraint4_0_86_15: x(80,86,0) - x(80,87,0) >= 0
 Constraint4_0_86_40: x(15,86,0) - x(15,87,0) + x(80,86,0) - x(80,87,0) >= 0
 Constraint4_0_86_49: x(15,86,0) - x(15,87,0) + x(40,86,0) - x(40,87,0)
                      + x(80,86,0) - x(80,87,0) >= 0
 Constraint4_0_86_22: x(15,86,0) - x(15,87,0) + x(40,86,0) - x(40,87,0)
                      + x(49,86,0) - x(49,87,0) + x(80,86,0) - x(80,87,0) >= 0
 Constraint4_0_86_64: x(15,86,0) - x(15,87,0) + x(40,86,0) - x(40,87,0)
                      + x(49,86,0) - x(49,87,0) + x(80,86,0) - x(80,87,0) >= 0
 Constraint4_0_86_81: x(15,86,0) - x(15,87,0) + x(40,86,0) - x(40,87,0)
                      + x(49,86,0) - x(49,87,0) + x(64,86,0) - x(64,87,0)
                      + x(80,86,0) - x(80,87,0) >= 0
 Constraint4_0_89_15: x(80,89,0) - x(80,90,0) >= 0
 Constraint4_0_89_40: x(15,89,0) - x(15,90,0) + x(80,89,0) - x(80,90,0) >= 0
 Constraint4_0_89_49: x(15,89,0) - x(15,90,0) + x(80,89,0) - x(80,90,0) >= 0
 Constraint4_0_89_22: x(15,89,0) - x(15,90,0) + x(49,89,0) - x(49,90,0)
                      + x(80,89,0) - x(80,90,0) >= 0
 Constraint4_0_89_64: x(15,89,0) - x(15,90,0) + x(22,89,0) - x(22,90,0)
                      + x(49,89,0) - x(49,90,0) + x(80,89,0) - x(80,90,0) >= 0
 Constraint4_0_89_81: x(15,89,0) - x(15,90,0) + x(22,89,0) - x(22,90,0)
                      + x(49,89,0) - x(49,90,0) + x(64,89,0) - x(64,90,0)
                      + x(80,89,0) - x(80,90,0) >= 0
 Constraint4_0_92_15: x(80,92,0) - x(80,93,0) >= 0
 Constraint4_0_92_40: x(15,92,0) - x(15,93,0) + x(80,92,0) - x(80,93,0) >= 0
 Constraint4_0_92_49: x(15,92,0) - x(15,93,0) + x(40,92,0) - x(40,93,0)
                      + x(80,92,0) - x(80,93,0) >= 0
 Constraint4_0_92_22: x(15,92,0) - x(15,93,0) + x(40,92,0) - x(40,93,0)
                      + x(49,92,0) - x(49,93,0) + x(80,92,0) - x(80,93,0) >= 0
 Constraint4_0_92_64: x(15,92,0) - x(15,93,0) + x(22,92,0) - x(22,93,0)
                      + x(40,92,0) - x(40,93,0) + x(49,92,0) - x(49,93,0)
                      + x(80,92,0) - x(80,93,0) >= 0
 Constraint4_0_92_81: x(15,92,0) - x(15,93,0) + x(22,92,0) - x(22,93,0)
                      + x(40,92,0) - x(40,93,0) + x(49,92,0) - x(49,93,0)
                      + x(64,92,0) - x(64,93,0) + x(80,92,0) - x(80,93,0) >= 0
 Constraint4_0_95_15: x(80,95,0) - x(80,96,0) >= 0
 Constraint4_0_95_40: x(80,95,0) - x(80,96,0) >= 0
 Constraint4_0_95_49: x(40,95,0) - x(40,96,0) + x(80,95,0) - x(80,96,0) >= 0
 Constraint4_0_95_22: x(40,95,0) - x(40,96,0) + x(49,95,0) - x(49,96,0)
                      + x(80,95,0) - x(80,96,0) >= 0
 Constraint4_0_95_64: x(22,95,0) - x(22,96,0) + x(40,95,0) - x(40,96,0)
                      + x(49,95,0) - x(49,96,0) + x(80,95,0) - x(80,96,0) >= 0
 Constraint4_0_95_81: x(22,95,0) - x(22,96,0) + x(40,95,0) - x(40,96,0)
                      + x(49,95,0) - x(49,96,0) + x(64,95,0) - x(64,96,0)
                      + x(80,95,0) - x(80,96,0) >= 0
 Constraint5_0_15:    - 0.919349593495935 x(80,82,0)
                      - 0.53860162601626 x(80,83,0)
                      - 0.760260162601626 x(80,84,0)
                      - 0.580959349593496 x(80,85,0)
                      - 0.332747967479675 x(80,86,0)
                      - 0.333479674796748 x(80,87,0)
                      - 0.761691056910569 x(80,88,0)
                      - 0.541918699186992 x(80,89,0)
                      - 0.627674796747967 x(80,90,0)
                      - 0.918617886178862 x(80,91,0)
                      - 0.685528455284553 x(80,92,0)
                      - 0.825674796747968 x(80,93,0) - b(0,80) + b(0,15)
                      >= 0.218536585365854
 Constraint5_0_0:     - 0.923154471544716 x(15,82,0)
                      - 0.488162601626016 x(15,83,0)
                      - 0.748113821138211 x(15,84,0)
                      - 0.561788617886179 x(15,85,0)
                      - 0.381967479674797 x(15,86,0)
                      - 0.29860162601626 x(15,87,0)
                      - 0.855349593495935 x(15,91,0)
                      - 0.634943089430894 x(15,92,0)
                      - 0.768065040650407 x(15,93,0) - b(0,15) + b(0,40)
                      >= 0.911772357723577
 Constraint5_0_12:    - 0.685691056910569 x(40,85,0)
                      - 0.578308943089431 x(40,86,0)
                      - 0.267626016260163 x(40,87,0)
                      - 0.403349593495935 x(40,91,0)
                      - 0.173186991869919 x(40,92,0)
                      - 0.265138211382114 x(40,93,0)
                      - 0.688764227642276 x(40,94,0)
                      - 0.520406504065041 x(40,95,0)
                      - 0.552113821138212 x(40,96,0) - b(0,40) + b(0,49)
                      >= 0.782455284552845
 Constraint5_0_10:    - 0.748422764227642 x(49,88,0)
                      - 0.573333333333333 x(49,89,0)
                      - 0.444308943089431 x(49,90,0)
                      - 0.536471544715447 x(49,91,0)
                      - 0.30060162601626 x(49,92,0)
                      - 0.420065040650406 x(49,93,0)
                      - 0.383788617886179 x(49,94,0)
                      - 0.299626016260163 x(49,95,0)
                      - 0.177284552845528 x(49,96,0) - b(0,49) + b(0,22)
                      >= 0.952357723577236
 Constraint5_0_1:     - 0.734471544715447 x(22,82,0)
                      - 0.415723577235772 x(22,83,0)
                      - 0.567186991869919 x(22,84,0)
                      - 0.747544715447155 x(22,88,0)
                      - 0.56250406504065 x(22,89,0)
                      - 0.557040650406504 x(22,90,0)
                      - 0.784764227642276 x(22,91,0)
                      - 0.548406504065041 x(22,92,0)
                      - 0.697430894308943 x(22,93,0)
                      - 0.20149593495935 x(22,94,0)
                      - 0.114065040650406 x(22,95,0)
                      - 0.0937723577235772 x(22,96,0) - b(0,22) + b(0,64)
                      >= 0.785674796747967
 Constraint5_0_4:     - 0.593008130081301 x(64,82,0)
                      - 0.31269918699187 x(64,83,0)
                      - 0.39879674796748 x(64,84,0)
                      - 0.446520325203252 x(64,85,0)
                      - 0.192991869918699 x(64,86,0)
                      - 0.207479674796748 x(64,87,0)
                      - 0.577105691056911 x(64,88,0)
                      - 0.374308943089431 x(64,89,0)
                      - 0.379918699186992 x(64,90,0)
                      - 0.542081300813008 x(64,91,0)
                      - 0.382260162601626 x(64,92,0)
                      - 0.457040650406504 x(64,93,0)
                      - 0.273934959349593 x(64,94,0)
                      - 0.111626016260163 x(64,95,0)
                      - 0.135674796747967 x(64,96,0) - b(0,64) + b(0,81)
                      >= 0.236130081300813
 Constraint6_0_80_82: - 19.4358048780488 x(80,82,0) - b(0,80) + s(82) >= -19
 Constraint6_0_80_83: - 19.4358048780488 x(80,83,0) - b(0,80) + s(83) >= -19
 Constraint6_0_80_84: - 19.5570243902439 x(80,84,0) - b(0,80) + s(84) >= -19
 Constraint6_0_80_85: - 19.3305853658537 x(80,85,0) - b(0,80) + s(85) >= -19
 Constraint6_0_80_86: - 19.3305853658537 x(80,86,0) - b(0,80) + s(86) >= -19
 Constraint6_0_80_87: - 19.3366341463415 x(80,87,0) - b(0,80) + s(87) >= -19
 Constraint6_0_80_88: - 19.3968292682927 x(80,88,0) - b(0,80) + s(88) >= -19
 Constraint6_0_80_89: - 19.3968292682927 x(80,89,0) - b(0,80) + s(89) >= -19
 Constraint6_0_80_90: - 19.4656097560976 x(80,90,0) - b(0,80) + s(90) >= -19
 Constraint6_0_80_91: - 19.5107317073171 x(80,91,0) - b(0,80) + s(91) >= -19
 Constraint6_0_80_92: - 19.5107317073171 x(80,92,0) - b(0,80) + s(92) >= -19
 Constraint6_0_80_93: - 19.5776097560976 x(80,93,0) - b(0,80) + s(93) >= -19
 Constraint6_0_80_94: - 19.2185365853659 x(80,94,0) - b(0,80) + s(94) >= -19
 Constraint6_0_80_95: - 19.2185365853659 x(80,95,0) - b(0,80) + s(95) >= -19
 Constraint6_0_80_96: - 19.2758536585366 x(80,96,0) - b(0,80) + s(96) >= -19
 Constraint6_0_15_82: - 10.7947804878049 x(15,82,0) - b(0,15) + s(82)
                      >= -9.76666666666667
 Constraint6_0_15_83: - 10.7947804878049 x(15,83,0) - b(0,15) + s(83)
                      >= -9.76666666666667
 Constraint6_0_15_84: - 10.9000487804878 x(15,84,0) - b(0,15) + s(84)
                      >= -9.76666666666667
 Constraint6_0_15_85: - 10.6989268292683 x(15,85,0) - b(0,15) + s(85)
                      >= -9.76666666666667
 Constraint6_0_15_86: - 10.6989268292683 x(15,86,0) - b(0,15) + s(86)
                      >= -9.76666666666667
 Constraint6_0_15_87: - 10.6892682926829 x(15,87,0) - b(0,15) + s(87)
                      >= -9.76666666666667
 Constraint6_0_15_88: - 10.8280975609756 x(15,88,0) - b(0,15) + s(88)
                      >= -9.76666666666667
 Constraint6_0_15_89: - 10.8280975609756 x(15,89,0) - b(0,15) + s(89)
                      >= -9.76666666666667
 Constraint6_0_15_90: - 10.850487804878 x(15,90,0) - b(0,15) + s(90)
                      >= -9.76666666666667
 Constraint6_0_15_91: - 10.8675609756098 x(15,91,0) - b(0,15) + s(91)
                      >= -9.76666666666667
 Constraint6_0_15_92: - 10.8675609756098 x(15,92,0) - b(0,15) + s(92)
                      >= -9.76666666666667
 Constraint6_0_15_93: - 10.9400975609756 x(15,93,0) - b(0,15) + s(93)
                      >= -9.76666666666667
 Constraint6_0_40_82: - 19.7824552845528 x(40,82,0) - b(0,40) + s(82) >= -19
 Constraint6_0_40_83: - 19.7824552845528 x(40,83,0) - b(0,40) + s(83) >= -19
 Constraint6_0_40_84: - 19.963674796748 x(40,84,0) - b(0,40) + s(84) >= -19
 Constraint6_0_40_85: - 20.0253333333333 x(40,85,0) - b(0,40) + s(85) >= -19
 Constraint6_0_40_86: - 20.0253333333333 x(40,86,0) - b(0,40) + s(86) >= -19
 Constraint6_0_40_87: - 19.8607967479675 x(40,87,0) - b(0,40) + s(87) >= -19
 Constraint6_0_40_91: - 19.7973333333333 x(40,91,0) - b(0,40) + s(91) >= -19
 Constraint6_0_40_92: - 19.7973333333333 x(40,92,0) - b(0,40) + s(92) >= -19
 Constraint6_0_40_93: - 19.8189430894309 x(40,93,0) - b(0,40) + s(93) >= -19
 Constraint6_0_40_94: - 19.9815284552846 x(40,94,0) - b(0,40) + s(94) >= -19
 Constraint6_0_40_95: - 19.9815284552846 x(40,95,0) - b(0,40) + s(95) >= -19
 Constraint6_0_40_96: - 20.0071869918699 x(40,96,0) - b(0,40) + s(96) >= -19
 Constraint6_0_49_85: - 19.9523577235772 x(49,85,0) - b(0,49) + s(85) >= -19
 Constraint6_0_49_86: - 19.9523577235772 x(49,86,0) - b(0,49) + s(86) >= -19
 Constraint6_0_49_87: - 19.9326504065041 x(49,87,0) - b(0,49) + s(87) >= -19
 Constraint6_0_49_88: - 20.0735772357724 x(49,88,0) - b(0,49) + s(88) >= -19
 Constraint6_0_49_89: - 20.0735772357724 x(49,89,0) - b(0,49) + s(89) >= -19
 Constraint6_0_49_90: - 19.9722601626016 x(49,90,0) - b(0,49) + s(90) >= -19
 Constraint6_0_49_91: - 19.8646504065041 x(49,91,0) - b(0,49) + s(91) >= -19
 Constraint6_0_49_92: - 19.8646504065041 x(49,92,0) - b(0,49) + s(92) >= -19
 Constraint6_0_49_93: - 19.9080650406504 x(49,93,0) - b(0,49) + s(93) >= -19
 Constraint6_0_49_94: - 20.0312845528455 x(49,94,0) - b(0,49) + s(94) >= -19
 Constraint6_0_49_95: - 20.0312845528455 x(49,95,0) - b(0,49) + s(95) >= -19
 Constraint6_0_49_96: - 19.9870894308943 x(49,96,0) - b(0,49) + s(96) >= -19
 Constraint6_0_22_82: - 17.8829430894309 x(22,82,0) - b(0,22) + s(82) >= -17
 Constraint6_0_22_83: - 17.8829430894309 x(22,83,0) - b(0,22) + s(83) >= -17
 Constraint6_0_22_84: - 17.9959674796748 x(22,84,0) - b(0,22) + s(84) >= -17
 Constraint6_0_22_88: - 17.9288455284553 x(22,88,0) - b(0,22) + s(88) >= -17
 Constraint6_0_22_89: - 17.9288455284553 x(22,89,0) - b(0,22) + s(89) >= -17
 Constraint6_0_22_90: - 17.9411382113821 x(22,90,0) - b(0,22) + s(90) >= -17
 Constraint6_0_22_91: - 17.9558211382114 x(22,91,0) - b(0,22) + s(91) >= -17
 Constraint6_0_22_92: - 17.9558211382114 x(22,92,0) - b(0,22) + s(92) >= -17
 Constraint6_0_22_93: - 18.0283089430894 x(22,93,0) - b(0,22) + s(93) >= -17
 Constraint6_0_22_94: - 17.7189918699187 x(22,94,0) - b(0,22) + s(94) >= -17
 Constraint6_0_22_95: - 17.7189918699187 x(22,95,0) - b(0,22) + s(95) >= -17
 Constraint6_0_22_96: - 17.7735772357724 x(22,96,0) - b(0,22) + s(96) >= -17
 Constraint6_0_64_82: - 17.9654959349593 x(64,82,0) - b(0,64) + s(82) >= -17.5
 Constraint6_0_64_83: - 17.9654959349593 x(64,83,0) - b(0,64) + s(83) >= -17.5
 Constraint6_0_64_84: - 18.051593495935 x(64,84,0) - b(0,64) + s(84) >= -17.5
 Constraint6_0_64_85: - 17.8457886178862 x(64,85,0) - b(0,64) + s(85) >= -17.5
 Constraint6_0_64_86: - 17.8457886178862 x(64,86,0) - b(0,64) + s(86) >= -17.5
 Constraint6_0_64_87: - 17.8602764227642 x(64,87,0) - b(0,64) + s(87) >= -17.5
 Constraint6_0_64_88: - 18.0271056910569 x(64,88,0) - b(0,64) + s(88) >= -17.5
 Constraint6_0_64_89: - 18.0271056910569 x(64,89,0) - b(0,64) + s(89) >= -17.5
 Constraint6_0_64_90: - 18.0327154471545 x(64,90,0) - b(0,64) + s(90) >= -17.5
 Constraint6_0_64_91: - 18.0350569105691 x(64,91,0) - b(0,64) + s(91) >= -17.5
 Constraint6_0_64_92: - 18.0350569105691 x(64,92,0) - b(0,64) + s(92) >= -17.5
 Constraint6_0_64_93: - 18.109837398374 x(64,93,0) - b(0,64) + s(93) >= -17.5
 Constraint6_0_64_94: - 17.7644227642276 x(64,94,0) - b(0,64) + s(94) >= -17.5
 Constraint6_0_64_95: - 17.7644227642276 x(64,95,0) - b(0,64) + s(95) >= -17.5
 Constraint6_0_64_96: - 17.7884715447154 x(64,96,0) - b(0,64) + s(96) >= -17.5
 Constraint8_80_0:    b(0,80) <= 19
 Constraint9_80_0:    b(0,80) >= 9
 Constraint8_15_0:    b(0,15) <= 9.3580487804878
 Constraint9_15_0:    b(0,15) >= 9.3580487804878
 Constraint8_40_0:    b(0,40) <= 11.45
 Constraint9_40_0:    b(0,40) >= 11.45
 Constraint8_49_0:    b(0,49) <= 12.332081300813
 Constraint9_49_0:    b(0,49) >= 12.332081300813
 Constraint8_22_0:    b(0,22) <= 16.5648943089431
 Constraint9_22_0:    b(0,22) >= 16.5648943089431
 Constraint8_64_0:    b(0,64) <= 17.5
 Constraint9_64_0:    b(0,64) >= 17.5
 Constraint8_81_0:    b(0,81) <= 19
 Constraint9_81_0:    b(0,81) >= 9
 Constraint10_82:     s(82) <= 19
 Constraint11_82:     s(82) >= 9
 Constraint10_83:     s(83) <= 19
 Constraint11_83:     s(83) >= 9
 Constraint10_84:     s(84) <= 19
 Constraint11_84:     s(84) >= 9
 Constraint10_85:     s(85) <= 19
 Constraint11_85:     s(85) >= 9
 Constraint10_86:     s(86) <= 19
 Constraint11_86:     s(86) >= 9
 Constraint10_87:     s(87) <= 19
 Constraint11_87:     s(87) >= 9
 Constraint10_88:     s(88) <= 19
 Constraint11_88:     s(88) >= 9
 Constraint10_89:     s(89) <= 19
 Constraint11_89:     s(89) >= 9
 Constraint10_90:     s(90) <= 19
 Constraint11_90:     s(90) >= 9
 Constraint10_91:     s(91) <= 19
 Constraint11_91:     s(91) >= 9
 Constraint10_92:     s(92) <= 19
 Constraint11_92:     s(92) >= 9
 Constraint10_93:     s(93) <= 19
 Constraint11_93:     s(93) >= 9
 Constraint10_94:     s(94) <= 19
 Constraint11_94:     s(94) >= 9
 Constraint10_95:     s(95) <= 19
 Constraint11_95:     s(95) >= 9
 Constraint10_96:     s(96) <= 19
 Constraint11_96:     s(96) >= 9
Bounds
 0 <= x(15,40,0) <= 1
 0 <= x(15,82,0) <= 1
 0 <= x(15,83,0) <= 1
 0 <= x(15,84,0) <= 1
 0 <= x(15,85,0) <= 1
 0 <= x(15,86,0) <= 1
 0 <= x(15,87,0) <= 1
 0 <= x(15,88,0) <= 1
 0 <= x(15,89,0) <= 1
 0 <= x(15,90,0) <= 1
 0 <= x(15,91,0) <= 1
 0 <= x(15,92,0) <= 1
 0 <= x(15,93,0) <= 1
 0 <= x(22,64,0) <= 1
 0 <= x(22,82,0) <= 1
 0 <= x(22,83,0) <= 1
 0 <= x(22,84,0) <= 1
 0 <= x(22,88,0) <= 1
 0 <= x(22,89,0) <= 1
 0 <= x(22,90,0) <= 1
 0 <= x(22,91,0) <= 1
 0 <= x(22,92,0) <= 1
 0 <= x(22,93,0) <= 1
 0 <= x(22,94,0) <= 1
 0 <= x(22,95,0) <= 1
 0 <= x(22,96,0) <= 1
 0 <= x(40,49,0) <= 1
 0 <= x(40,82,0) <= 1
 0 <= x(40,83,0) <= 1
 0 <= x(40,84,0) <= 1
 0 <= x(40,85,0) <= 1
 0 <= x(40,86,0) <= 1
 0 <= x(40,87,0) <= 1
 0 <= x(40,91,0) <= 1
 0 <= x(40,92,0) <= 1
 0 <= x(40,93,0) <= 1
 0 <= x(40,94,0) <= 1
 0 <= x(40,95,0) <= 1
 0 <= x(40,96,0) <= 1
 0 <= x(49,22,0) <= 1
 0 <= x(49,85,0) <= 1
 0 <= x(49,86,0) <= 1
 0 <= x(49,87,0) <= 1
 0 <= x(49,88,0) <= 1
 0 <= x(49,89,0) <= 1
 0 <= x(49,90,0) <= 1
 0 <= x(49,91,0) <= 1
 0 <= x(49,92,0) <= 1
 0 <= x(49,93,0) <= 1
 0 <= x(49,94,0) <= 1
 0 <= x(49,95,0) <= 1
 0 <= x(49,96,0) <= 1
 0 <= x(64,81,0) <= 1
 0 <= x(64,82,0) <= 1
 0 <= x(64,83,0) <= 1
 0 <= x(64,84,0) <= 1
 0 <= x(64,85,0) <= 1
 0 <= x(64,86,0) <= 1
 0 <= x(64,87,0) <= 1
 0 <= x(64,88,0) <= 1
 0 <= x(64,89,0) <= 1
 0 <= x(64,90,0) <= 1
 0 <= x(64,91,0) <= 1
 0 <= x(64,92,0) <= 1
 0 <= x(64,93,0) <= 1
 0 <= x(64,94,0) <= 1
 0 <= x(64,95,0) <= 1
 0 <= x(64,96,0) <= 1
 0 <= x(80,15,0) <= 1
 0 <= x(80,82,0) <= 1
 0 <= x(80,83,0) <= 1
 0 <= x(80,84,0) <= 1
 0 <= x(80,85,0) <= 1
 0 <= x(80,86,0) <= 1
 0 <= x(80,87,0) <= 1
 0 <= x(80,88,0) <= 1
 0 <= x(80,89,0) <= 1
 0 <= x(80,90,0) <= 1
 0 <= x(80,91,0) <= 1
 0 <= x(80,92,0) <= 1
 0 <= x(80,93,0) <= 1
 0 <= x(80,94,0) <= 1
 0 <= x(80,95,0) <= 1
 0 <= x(80,96,0) <= 1
 0 <= x(82,15,0) <= 1
 0 <= x(82,22,0) <= 1
 0 <= x(82,40,0) <= 1
 0 <= x(82,64,0) <= 1
 0 <= x(82,81,0) <= 1
 0 <= x(82,85,0) <= 1
 0 <= x(82,86,0) <= 1
 0 <= x(82,87,0) <= 1
 0 <= x(82,88,0) <= 1
 0 <= x(82,89,0) <= 1
 0 <= x(82,90,0) <= 1
 0 <= x(82,91,0) <= 1
 0 <= x(82,92,0) <= 1
 0 <= x(82,93,0) <= 1
 0 <= x(82,94,0) <= 1
 0 <= x(82,95,0) <= 1
 0 <= x(82,96,0) <= 1
 0 <= x(83,15,0) <= 1
 0 <= x(83,22,0) <= 1
 0 <= x(83,40,0) <= 1
 0 <= x(83,64,0) <= 1
 0 <= x(83,81,0) <= 1
 0 <= x(83,85,0) <= 1
 0 <= x(83,86,0) <= 1
 0 <= x(83,87,0) <= 1
 0 <= x(83,88,0) <= 1
 0 <= x(83,89,0) <= 1
 0 <= x(83,90,0) <= 1
 0 <= x(83,91,0) <= 1
 0 <= x(83,92,0) <= 1
 0 <= x(83,93,0) <= 1
 0 <= x(83,94,0) <= 1
 0 <= x(83,95,0) <= 1
 0 <= x(83,96,0) <= 1
 0 <= x(84,15,0) <= 1
 0 <= x(84,22,0) <= 1
 0 <= x(84,40,0) <= 1
 0 <= x(84,64,0) <= 1
 0 <= x(84,81,0) <= 1
 0 <= x(84,85,0) <= 1
 0 <= x(84,86,0) <= 1
 0 <= x(84,87,0) <= 1
 0 <= x(84,88,0) <= 1
 0 <= x(84,89,0) <= 1
 0 <= x(84,90,0) <= 1
 0 <= x(84,91,0) <= 1
 0 <= x(84,92,0) <= 1
 0 <= x(84,93,0) <= 1
 0 <= x(84,94,0) <= 1
 0 <= x(84,95,0) <= 1
 0 <= x(84,96,0) <= 1
 0 <= x(85,15,0) <= 1
 0 <= x(85,40,0) <= 1
 0 <= x(85,49,0) <= 1
 0 <= x(85,64,0) <= 1
 0 <= x(85,81,0) <= 1
 0 <= x(85,82,0) <= 1
 0 <= x(85,83,0) <= 1
 0 <= x(85,84,0) <= 1
 0 <= x(85,88,0) <= 1
 0 <= x(85,89,0) <= 1
 0 <= x(85,90,0) <= 1
 0 <= x(85,91,0) <= 1
 0 <= x(85,92,0) <= 1
 0 <= x(85,93,0) <= 1
 0 <= x(85,94,0) <= 1
 0 <= x(85,95,0) <= 1
 0 <= x(85,96,0) <= 1
 0 <= x(86,15,0) <= 1
 0 <= x(86,40,0) <= 1
 0 <= x(86,49,0) <= 1
 0 <= x(86,64,0) <= 1
 0 <= x(86,81,0) <= 1
 0 <= x(86,82,0) <= 1
 0 <= x(86,83,0) <= 1
 0 <= x(86,84,0) <= 1
 0 <= x(86,88,0) <= 1
 0 <= x(86,89,0) <= 1
 0 <= x(86,90,0) <= 1
 0 <= x(86,91,0) <= 1
 0 <= x(86,92,0) <= 1
 0 <= x(86,93,0) <= 1
 0 <= x(86,94,0) <= 1
 0 <= x(86,95,0) <= 1
 0 <= x(86,96,0) <= 1
 0 <= x(87,15,0) <= 1
 0 <= x(87,40,0) <= 1
 0 <= x(87,49,0) <= 1
 0 <= x(87,64,0) <= 1
 0 <= x(87,81,0) <= 1
 0 <= x(87,82,0) <= 1
 0 <= x(87,83,0) <= 1
 0 <= x(87,84,0) <= 1
 0 <= x(87,88,0) <= 1
 0 <= x(87,89,0) <= 1
 0 <= x(87,90,0) <= 1
 0 <= x(87,91,0) <= 1
 0 <= x(87,92,0) <= 1
 0 <= x(87,93,0) <= 1
 0 <= x(87,94,0) <= 1
 0 <= x(87,95,0) <= 1
 0 <= x(87,96,0) <= 1
 0 <= x(88,15,0) <= 1
 0 <= x(88,22,0) <= 1
 0 <= x(88,49,0) <= 1
 0 <= x(88,64,0) <= 1
 0 <= x(88,81,0) <= 1
 0 <= x(88,82,0) <= 1
 0 <= x(88,83,0) <= 1
 0 <= x(88,84,0) <= 1
 0 <= x(88,85,0) <= 1
 0 <= x(88,86,0) <= 1
 0 <= x(88,87,0) <= 1
 0 <= x(88,91,0) <= 1
 0 <= x(88,92,0) <= 1
 0 <= x(88,93,0) <= 1
 0 <= x(88,94,0) <= 1
 0 <= x(88,95,0) <= 1
 0 <= x(88,96,0) <= 1
 0 <= x(89,15,0) <= 1
 0 <= x(89,22,0) <= 1
 0 <= x(89,49,0) <= 1
 0 <= x(89,64,0) <= 1
 0 <= x(89,81,0) <= 1
 0 <= x(89,82,0) <= 1
 0 <= x(89,83,0) <= 1
 0 <= x(89,84,0) <= 1
 0 <= x(89,85,0) <= 1
 0 <= x(89,86,0) <= 1
 0 <= x(89,87,0) <= 1
 0 <= x(89,91,0) <= 1
 0 <= x(89,92,0) <= 1
 0 <= x(89,93,0) <= 1
 0 <= x(89,94,0) <= 1
 0 <= x(89,95,0) <= 1
 0 <= x(89,96,0) <= 1
 0 <= x(90,15,0) <= 1
 0 <= x(90,22,0) <= 1
 0 <= x(90,49,0) <= 1
 0 <= x(90,64,0) <= 1
 0 <= x(90,81,0) <= 1
 0 <= x(90,82,0) <= 1
 0 <= x(90,83,0) <= 1
 0 <= x(90,84,0) <= 1
 0 <= x(90,85,0) <= 1
 0 <= x(90,86,0) <= 1
 0 <= x(90,87,0) <= 1
 0 <= x(90,91,0) <= 1
 0 <= x(90,92,0) <= 1
 0 <= x(90,93,0) <= 1
 0 <= x(90,94,0) <= 1
 0 <= x(90,95,0) <= 1
 0 <= x(90,96,0) <= 1
 0 <= x(91,15,0) <= 1
 0 <= x(91,22,0) <= 1
 0 <= x(91,40,0) <= 1
 0 <= x(91,49,0) <= 1
 0 <= x(91,64,0) <= 1
 0 <= x(91,81,0) <= 1
 0 <= x(91,82,0) <= 1
 0 <= x(91,83,0) <= 1
 0 <= x(91,84,0) <= 1
 0 <= x(91,85,0) <= 1
 0 <= x(91,86,0) <= 1
 0 <= x(91,87,0) <= 1
 0 <= x(91,88,0) <= 1
 0 <= x(91,89,0) <= 1
 0 <= x(91,90,0) <= 1
 0 <= x(91,94,0) <= 1
 0 <= x(91,95,0) <= 1
 0 <= x(91,96,0) <= 1
 0 <= x(92,15,0) <= 1
 0 <= x(92,22,0) <= 1
 0 <= x(92,40,0) <= 1
 0 <= x(92,49,0) <= 1
 0 <= x(92,64,0) <= 1
 0 <= x(92,81,0) <= 1
 0 <= x(92,82,0) <= 1
 0 <= x(92,83,0) <= 1
 0 <= x(92,84,0) <= 1
 0 <= x(92,85,0) <= 1
 0 <= x(92,86,0) <= 1
 0 <= x(92,87,0) <= 1
 0 <= x(92,88,0) <= 1
 0 <= x(92,89,0) <= 1
 0 <= x(92,90,0) <= 1
 0 <= x(92,94,0) <= 1
 0 <= x(92,95,0) <= 1
 0 <= x(92,96,0) <= 1
 0 <= x(93,15,0) <= 1
 0 <= x(93,22,0) <= 1
 0 <= x(93,40,0) <= 1
 0 <= x(93,49,0) <= 1
 0 <= x(93,64,0) <= 1
 0 <= x(93,81,0) <= 1
 0 <= x(93,82,0) <= 1
 0 <= x(93,83,0) <= 1
 0 <= x(93,84,0) <= 1
 0 <= x(93,85,0) <= 1
 0 <= x(93,86,0) <= 1
 0 <= x(93,87,0) <= 1
 0 <= x(93,88,0) <= 1
 0 <= x(93,89,0) <= 1
 0 <= x(93,90,0) <= 1
 0 <= x(93,94,0) <= 1
 0 <= x(93,95,0) <= 1
 0 <= x(93,96,0) <= 1
 0 <= x(94,22,0) <= 1
 0 <= x(94,40,0) <= 1
 0 <= x(94,49,0) <= 1
 0 <= x(94,64,0) <= 1
 0 <= x(94,81,0) <= 1
 0 <= x(94,82,0) <= 1
 0 <= x(94,83,0) <= 1
 0 <= x(94,84,0) <= 1
 0 <= x(94,85,0) <= 1
 0 <= x(94,86,0) <= 1
 0 <= x(94,87,0) <= 1
 0 <= x(94,88,0) <= 1
 0 <= x(94,89,0) <= 1
 0 <= x(94,90,0) <= 1
 0 <= x(94,91,0) <= 1
 0 <= x(94,92,0) <= 1
 0 <= x(94,93,0) <= 1
 0 <= x(95,22,0) <= 1
 0 <= x(95,40,0) <= 1
 0 <= x(95,49,0) <= 1
 0 <= x(95,64,0) <= 1
 0 <= x(95,81,0) <= 1
 0 <= x(95,82,0) <= 1
 0 <= x(95,83,0) <= 1
 0 <= x(95,84,0) <= 1
 0 <= x(95,85,0) <= 1
 0 <= x(95,86,0) <= 1
 0 <= x(95,87,0) <= 1
 0 <= x(95,88,0) <= 1
 0 <= x(95,89,0) <= 1
 0 <= x(95,90,0) <= 1
 0 <= x(95,91,0) <= 1
 0 <= x(95,92,0) <= 1
 0 <= x(95,93,0) <= 1
 0 <= x(96,22,0) <= 1
 0 <= x(96,40,0) <= 1
 0 <= x(96,49,0) <= 1
 0 <= x(96,64,0) <= 1
 0 <= x(96,81,0) <= 1
 0 <= x(96,82,0) <= 1
 0 <= x(96,83,0) <= 1
 0 <= x(96,84,0) <= 1
 0 <= x(96,85,0) <= 1
 0 <= x(96,86,0) <= 1
 0 <= x(96,87,0) <= 1
 0 <= x(96,88,0) <= 1
 0 <= x(96,89,0) <= 1
 0 <= x(96,90,0) <= 1
 0 <= x(96,91,0) <= 1
 0 <= x(96,92,0) <= 1
 0 <= x(96,93,0) <= 1
 0 <= b(0,80) <= 19
 0 <= b(0,15) <= 19
 0 <= b(0,40) <= 19
 0 <= b(0,49) <= 19
 0 <= b(0,22) <= 19
 0 <= b(0,64) <= 19
 0 <= b(0,81) <= 19
 0 <= s(82) <= 19
 0 <= s(83) <= 19
 0 <= s(84) <= 19
 0 <= s(85) <= 19
 0 <= s(86) <= 19
 0 <= s(87) <= 19
 0 <= s(88) <= 19
 0 <= s(89) <= 19
 0 <= s(90) <= 19
 0 <= s(91) <= 19
 0 <= s(92) <= 19
 0 <= s(93) <= 19
 0 <= s(94) <= 19
 0 <= s(95) <= 19
 0 <= s(96) <= 19
Binaries
 x(15,40,0)  x(15,82,0)  x(15,83,0)  x(15,84,0)  x(15,85,0)  x(15,86,0) 
 x(15,87,0)  x(15,88,0)  x(15,89,0)  x(15,90,0)  x(15,91,0)  x(15,92,0) 
 x(15,93,0)  x(22,64,0)  x(22,82,0)  x(22,83,0)  x(22,84,0)  x(22,88,0) 
 x(22,89,0)  x(22,90,0)  x(22,91,0)  x(22,92,0)  x(22,93,0)  x(22,94,0) 
 x(22,95,0)  x(22,96,0)  x(40,49,0)  x(40,82,0)  x(40,83,0)  x(40,84,0) 
 x(40,85,0)  x(40,86,0)  x(40,87,0)  x(40,91,0)  x(40,92,0)  x(40,93,0) 
 x(40,94,0)  x(40,95,0)  x(40,96,0)  x(49,22,0)  x(49,85,0)  x(49,86,0) 
 x(49,87,0)  x(49,88,0)  x(49,89,0)  x(49,90,0)  x(49,91,0)  x(49,92,0) 
 x(49,93,0)  x(49,94,0)  x(49,95,0)  x(49,96,0)  x(64,81,0)  x(64,82,0) 
 x(64,83,0)  x(64,84,0)  x(64,85,0)  x(64,86,0)  x(64,87,0)  x(64,88,0) 
 x(64,89,0)  x(64,90,0)  x(64,91,0)  x(64,92,0)  x(64,93,0)  x(64,94,0) 
 x(64,95,0)  x(64,96,0)  x(80,15,0)  x(80,82,0)  x(80,83,0)  x(80,84,0) 
 x(80,85,0)  x(80,86,0)  x(80,87,0)  x(80,88,0)  x(80,89,0)  x(80,90,0) 
 x(80,91,0)  x(80,92,0)  x(80,93,0)  x(80,94,0)  x(80,95,0)  x(80,96,0) 
 x(82,15,0)  x(82,22,0)  x(82,40,0)  x(82,64,0)  x(82,81,0)  x(82,85,0) 
 x(82,86,0)  x(82,87,0)  x(82,88,0)  x(82,89,0)  x(82,90,0)  x(82,91,0) 
 x(82,92,0)  x(82,93,0)  x(82,94,0)  x(82,95,0)  x(82,96,0)  x(83,15,0) 
 x(83,22,0)  x(83,40,0)  x(83,64,0)  x(83,81,0)  x(83,85,0)  x(83,86,0) 
 x(83,87,0)  x(83,88,0)  x(83,89,0)  x(83,90,0)  x(83,91,0)  x(83,92,0) 
 x(83,93,0)  x(83,94,0)  x(83,95,0)  x(83,96,0)  x(84,15,0)  x(84,22,0) 
 x(84,40,0)  x(84,64,0)  x(84,81,0)  x(84,85,0)  x(84,86,0)  x(84,87,0) 
 x(84,88,0)  x(84,89,0)  x(84,90,0)  x(84,91,0)  x(84,92,0)  x(84,93,0) 
 x(84,94,0)  x(84,95,0)  x(84,96,0)  x(85,15,0)  x(85,40,0)  x(85,49,0) 
 x(85,64,0)  x(85,81,0)  x(85,82,0)  x(85,83,0)  x(85,84,0)  x(85,88,0) 
 x(85,89,0)  x(85,90,0)  x(85,91,0)  x(85,92,0)  x(85,93,0)  x(85,94,0) 
 x(85,95,0)  x(85,96,0)  x(86,15,0)  x(86,40,0)  x(86,49,0)  x(86,64,0) 
 x(86,81,0)  x(86,82,0)  x(86,83,0)  x(86,84,0)  x(86,88,0)  x(86,89,0) 
 x(86,90,0)  x(86,91,0)  x(86,92,0)  x(86,93,0)  x(86,94,0)  x(86,95,0) 
 x(86,96,0)  x(87,15,0)  x(87,40,0)  x(87,49,0)  x(87,64,0)  x(87,81,0) 
 x(87,82,0)  x(87,83,0)  x(87,84,0)  x(87,88,0)  x(87,89,0)  x(87,90,0) 
 x(87,91,0)  x(87,92,0)  x(87,93,0)  x(87,94,0)  x(87,95,0)  x(87,96,0) 
 x(88,15,0)  x(88,22,0)  x(88,49,0)  x(88,64,0)  x(88,81,0)  x(88,82,0) 
 x(88,83,0)  x(88,84,0)  x(88,85,0)  x(88,86,0)  x(88,87,0)  x(88,91,0) 
 x(88,92,0)  x(88,93,0)  x(88,94,0)  x(88,95,0)  x(88,96,0)  x(89,15,0) 
 x(89,22,0)  x(89,49,0)  x(89,64,0)  x(89,81,0)  x(89,82,0)  x(89,83,0) 
 x(89,84,0)  x(89,85,0)  x(89,86,0)  x(89,87,0)  x(89,91,0)  x(89,92,0) 
 x(89,93,0)  x(89,94,0)  x(89,95,0)  x(89,96,0)  x(90,15,0)  x(90,22,0) 
 x(90,49,0)  x(90,64,0)  x(90,81,0)  x(90,82,0)  x(90,83,0)  x(90,84,0) 
 x(90,85,0)  x(90,86,0)  x(90,87,0)  x(90,91,0)  x(90,92,0)  x(90,93,0) 
 x(90,94,0)  x(90,95,0)  x(90,96,0)  x(91,15,0)  x(91,22,0)  x(91,40,0) 
 x(91,49,0)  x(91,64,0)  x(91,81,0)  x(91,82,0)  x(91,83,0)  x(91,84,0) 
 x(91,85,0)  x(91,86,0)  x(91,87,0)  x(91,88,0)  x(91,89,0)  x(91,90,0) 
 x(91,94,0)  x(91,95,0)  x(91,96,0)  x(92,15,0)  x(92,22,0)  x(92,40,0) 
 x(92,49,0)  x(92,64,0)  x(92,81,0)  x(92,82,0)  x(92,83,0)  x(92,84,0) 
 x(92,85,0)  x(92,86,0)  x(92,87,0)  x(92,88,0)  x(92,89,0)  x(92,90,0) 
 x(92,94,0)  x(92,95,0)  x(92,96,0)  x(93,15,0)  x(93,22,0)  x(93,40,0) 
 x(93,49,0)  x(93,64,0)  x(93,81,0)  x(93,82,0)  x(93,83,0)  x(93,84,0) 
 x(93,85,0)  x(93,86,0)  x(93,87,0)  x(93,88,0)  x(93,89,0)  x(93,90,0) 
 x(93,94,0)  x(93,95,0)  x(93,96,0)  x(94,22,0)  x(94,40,0)  x(94,49,0) 
 x(94,64,0)  x(94,81,0)  x(94,82,0)  x(94,83,0)  x(94,84,0)  x(94,85,0) 
 x(94,86,0)  x(94,87,0)  x(94,88,0)  x(94,89,0)  x(94,90,0)  x(94,91,0) 
 x(94,92,0)  x(94,93,0)  x(95,22,0)  x(95,40,0)  x(95,49,0)  x(95,64,0) 
 x(95,81,0)  x(95,82,0)  x(95,83,0)  x(95,84,0)  x(95,85,0)  x(95,86,0) 
 x(95,87,0)  x(95,88,0)  x(95,89,0)  x(95,90,0)  x(95,91,0)  x(95,92,0) 
 x(95,93,0)  x(96,22,0)  x(96,40,0)  x(96,49,0)  x(96,64,0)  x(96,81,0) 
 x(96,82,0)  x(96,83,0)  x(96,84,0)  x(96,85,0)  x(96,86,0)  x(96,87,0) 
 x(96,88,0)  x(96,89,0)  x(96,90,0)  x(96,91,0)  x(96,92,0)  x(96,93,0) 
End
